NAME /Users/henri/Research/solvers/instances/idol-instances/robust/collection/cbp_Subramanyam_et_al_2020/CapBud_N30_16/models/uncertain_technology_matrix/
ROWS
 N  OBJ
 L  capacity
 L  c_6585
 L  c_6586
 L  c_6587
 L  c_6588
 L  c_6589
 L  c_6590
 L  c_6591
 L  c_6592
 L  c_6593
 L  c_6594
 L  c_6595
 L  c_6596
 L  c_6597
 L  c_6598
 L  c_6599
 L  c_6600
 L  c_6601
 L  c_6602
 L  c_6603
 L  c_6604
 L  c_6605
 L  c_6606
 L  c_6607
 L  c_6608
 L  c_6609
 L  c_6610
 L  c_6611
 L  c_6612
 L  c_6613
 L  c_6614
COLUMNS
    MARKER    'MARKER'                 'INTORG'
    x_0        OBJ        -7.13785
    x_0        c_6585     1
    x_0        capacity   1.42757
    x_1        OBJ        -3.79447
    x_1        c_6586     1
    x_1        capacity   0.758893
    x_2        OBJ        -0.978056
    x_2        c_6587     1
    x_2        capacity   0.195611
    x_3        OBJ        -1.09315
    x_3        c_6588     1
    x_3        capacity   0.218629
    x_4        OBJ        -8.47327
    x_4        c_6589     1
    x_4        capacity   1.69465
    x_5        OBJ        -0.441776
    x_5        c_6590     1
    x_5        capacity   0.0883552
    x_6        OBJ        -4.1179
    x_6        c_6591     1
    x_6        capacity   0.823579
    x_7        OBJ        -6.10591
    x_7        c_6592     1
    x_7        capacity   1.22118
    x_8        OBJ        -5.91244
    x_8        c_6593     1
    x_8        capacity   1.18249
    x_9        OBJ        -7.60517
    x_9        c_6594     1
    x_9        capacity   1.52103
    x_10       OBJ        -3.29697
    x_10       c_6595     1
    x_10       capacity   0.659394
    x_11       OBJ        -9.71457
    x_11       c_6596     1
    x_11       capacity   1.94291
    x_12       OBJ        -7.90198
    x_12       c_6597     1
    x_12       capacity   1.5804
    x_13       OBJ        -4.2639
    x_13       c_6598     1
    x_13       capacity   0.85278
    x_14       OBJ        -1.29587
    x_14       c_6599     1
    x_14       capacity   0.259175
    x_15       OBJ        -5.92185
    x_15       c_6600     1
    x_15       capacity   1.18437
    x_16       OBJ        -5.3816
    x_16       c_6601     1
    x_16       capacity   1.07632
    x_17       OBJ        -1.97101
    x_17       c_6602     1
    x_17       capacity   0.394202
    x_18       OBJ        -7.52947
    x_18       c_6603     1
    x_18       capacity   1.50589
    x_19       OBJ        -0.91472
    x_19       c_6604     1
    x_19       capacity   0.182944
    x_20       OBJ        -1.82577
    x_20       c_6605     1
    x_20       capacity   0.365153
    x_21       OBJ        -8.06352
    x_21       c_6606     1
    x_21       capacity   1.6127
    x_22       OBJ        -8.80478
    x_22       c_6607     1
    x_22       capacity   1.76096
    x_23       OBJ        -2.99101
    x_23       c_6608     1
    x_23       capacity   0.598201
    x_24       OBJ        -4.2842
    x_24       c_6609     1
    x_24       capacity   0.856839
    x_25       OBJ        -1.64737
    x_25       c_6610     1
    x_25       capacity   0.329473
    x_26       OBJ        -0.403535
    x_26       c_6611     1
    x_26       capacity   0.0807071
    x_27       OBJ        -1.27219
    x_27       c_6612     1
    x_27       capacity   0.254439
    x_28       OBJ        -2.78702
    x_28       c_6613     1
    x_28       capacity   0.557405
    x_29       OBJ        -4.99121
    x_29       c_6614     1
    x_29       capacity   0.998243
    y_0        OBJ        -5.71028
    y_0        c_6585     1
    y_0        capacity   1.42757
    y_1        OBJ        -3.03557
    y_1        c_6586     1
    y_1        capacity   0.758893
    y_2        OBJ        -0.782445
    y_2        c_6587     1
    y_2        capacity   0.195611
    y_3        OBJ        -0.874518
    y_3        c_6588     1
    y_3        capacity   0.218629
    y_4        OBJ        -6.77861
    y_4        c_6589     1
    y_4        capacity   1.69465
    y_5        OBJ        -0.353421
    y_5        c_6590     1
    y_5        capacity   0.0883552
    y_6        OBJ        -3.29432
    y_6        c_6591     1
    y_6        capacity   0.823579
    y_7        OBJ        -4.88473
    y_7        c_6592     1
    y_7        capacity   1.22118
    y_8        OBJ        -4.72996
    y_8        c_6593     1
    y_8        capacity   1.18249
    y_9        OBJ        -6.08414
    y_9        c_6594     1
    y_9        capacity   1.52103
    y_10       OBJ        -2.63757
    y_10       c_6595     1
    y_10       capacity   0.659394
    y_11       OBJ        -7.77165
    y_11       c_6596     1
    y_11       capacity   1.94291
    y_12       OBJ        -6.32159
    y_12       c_6597     1
    y_12       capacity   1.5804
    y_13       OBJ        -3.41112
    y_13       c_6598     1
    y_13       capacity   0.85278
    y_14       OBJ        -1.0367
    y_14       c_6599     1
    y_14       capacity   0.259175
    y_15       OBJ        -4.73748
    y_15       c_6600     1
    y_15       capacity   1.18437
    y_16       OBJ        -4.30528
    y_16       c_6601     1
    y_16       capacity   1.07632
    y_17       OBJ        -1.57681
    y_17       c_6602     1
    y_17       capacity   0.394202
    y_18       OBJ        -6.02358
    y_18       c_6603     1
    y_18       capacity   1.50589
    y_19       OBJ        -0.731776
    y_19       c_6604     1
    y_19       capacity   0.182944
    y_20       OBJ        -1.46061
    y_20       c_6605     1
    y_20       capacity   0.365153
    y_21       OBJ        -6.45081
    y_21       c_6606     1
    y_21       capacity   1.6127
    y_22       OBJ        -7.04382
    y_22       c_6607     1
    y_22       capacity   1.76096
    y_23       OBJ        -2.39281
    y_23       c_6608     1
    y_23       capacity   0.598201
    y_24       OBJ        -3.42736
    y_24       c_6609     1
    y_24       capacity   0.856839
    y_25       OBJ        -1.31789
    y_25       c_6610     1
    y_25       capacity   0.329473
    y_26       OBJ        -0.322828
    y_26       c_6611     1
    y_26       capacity   0.0807071
    y_27       OBJ        -1.01775
    y_27       c_6612     1
    y_27       capacity   0.254439
    y_28       OBJ        -2.22962
    y_28       c_6613     1
    y_28       capacity   0.557405
    y_29       OBJ        -3.99297
    y_29       c_6614     1
    y_29       capacity   0.998243
    MARKER    'MARKER'                 'INTEND'
RHS
    RHS       capacity   65.4613
    RHS       c_6585     1
    RHS       c_6586     1
    RHS       c_6587     1
    RHS       c_6588     1
    RHS       c_6589     1
    RHS       c_6590     1
    RHS       c_6591     1
    RHS       c_6592     1
    RHS       c_6593     1
    RHS       c_6594     1
    RHS       c_6595     1
    RHS       c_6596     1
    RHS       c_6597     1
    RHS       c_6598     1
    RHS       c_6599     1
    RHS       c_6600     1
    RHS       c_6601     1
    RHS       c_6602     1
    RHS       c_6603     1
    RHS       c_6604     1
    RHS       c_6605     1
    RHS       c_6606     1
    RHS       c_6607     1
    RHS       c_6608     1
    RHS       c_6609     1
    RHS       c_6610     1
    RHS       c_6611     1
    RHS       c_6612     1
    RHS       c_6613     1
    RHS       c_6614     1
BOUNDS
 LI BND       x_0        0
 UI BND       x_0        1
 LI BND       x_1        0
 UI BND       x_1        1
 LI BND       x_2        0
 UI BND       x_2        1
 LI BND       x_3        0
 UI BND       x_3        1
 LI BND       x_4        0
 UI BND       x_4        1
 LI BND       x_5        0
 UI BND       x_5        1
 LI BND       x_6        0
 UI BND       x_6        1
 LI BND       x_7        0
 UI BND       x_7        1
 LI BND       x_8        0
 UI BND       x_8        1
 LI BND       x_9        0
 UI BND       x_9        1
 LI BND       x_10       0
 UI BND       x_10       1
 LI BND       x_11       0
 UI BND       x_11       1
 LI BND       x_12       0
 UI BND       x_12       1
 LI BND       x_13       0
 UI BND       x_13       1
 LI BND       x_14       0
 UI BND       x_14       1
 LI BND       x_15       0
 UI BND       x_15       1
 LI BND       x_16       0
 UI BND       x_16       1
 LI BND       x_17       0
 UI BND       x_17       1
 LI BND       x_18       0
 UI BND       x_18       1
 LI BND       x_19       0
 UI BND       x_19       1
 LI BND       x_20       0
 UI BND       x_20       1
 LI BND       x_21       0
 UI BND       x_21       1
 LI BND       x_22       0
 UI BND       x_22       1
 LI BND       x_23       0
 UI BND       x_23       1
 LI BND       x_24       0
 UI BND       x_24       1
 LI BND       x_25       0
 UI BND       x_25       1
 LI BND       x_26       0
 UI BND       x_26       1
 LI BND       x_27       0
 UI BND       x_27       1
 LI BND       x_28       0
 UI BND       x_28       1
 LI BND       x_29       0
 UI BND       x_29       1
 LI BND       y_0        0
 UI BND       y_0        1
 LI BND       y_1        0
 UI BND       y_1        1
 LI BND       y_2        0
 UI BND       y_2        1
 LI BND       y_3        0
 UI BND       y_3        1
 LI BND       y_4        0
 UI BND       y_4        1
 LI BND       y_5        0
 UI BND       y_5        1
 LI BND       y_6        0
 UI BND       y_6        1
 LI BND       y_7        0
 UI BND       y_7        1
 LI BND       y_8        0
 UI BND       y_8        1
 LI BND       y_9        0
 UI BND       y_9        1
 LI BND       y_10       0
 UI BND       y_10       1
 LI BND       y_11       0
 UI BND       y_11       1
 LI BND       y_12       0
 UI BND       y_12       1
 LI BND       y_13       0
 UI BND       y_13       1
 LI BND       y_14       0
 UI BND       y_14       1
 LI BND       y_15       0
 UI BND       y_15       1
 LI BND       y_16       0
 UI BND       y_16       1
 LI BND       y_17       0
 UI BND       y_17       1
 LI BND       y_18       0
 UI BND       y_18       1
 LI BND       y_19       0
 UI BND       y_19       1
 LI BND       y_20       0
 UI BND       y_20       1
 LI BND       y_21       0
 UI BND       y_21       1
 LI BND       y_22       0
 UI BND       y_22       1
 LI BND       y_23       0
 UI BND       y_23       1
 LI BND       y_24       0
 UI BND       y_24       1
 LI BND       y_25       0
 UI BND       y_25       1
 LI BND       y_26       0
 UI BND       y_26       1
 LI BND       y_27       0
 UI BND       y_27       1
 LI BND       y_28       0
 UI BND       y_28       1
 LI BND       y_29       0
 UI BND       y_29       1
ENDATA
